NAME: cum100.tsp
TYPE: TSP
COMMENT: User-generated TSP file
DIMENSION: 100
EDGE_WEIGHT_TYPE: EUC_2D
NODE_COORD_SECTION
1 53.0 89.0
2 20.0 76.0
3 10.0 39.0
4 74.0 25.0
5 90.0 64.0
6 68.0 99.0
7 33.0 41.0
8 64.0 52.0
9 43.0 25.0
10 50.0 97.0
11 50.0 3.0
12 56.0 85.0
13 55.0 16.0
14 91.0 51.0
15 55.0 6.0
16 18.0 6.0
17 35.0 84.0
18 97.0 11.0
19 61.0 43.0
20 14.0 68.0
21 74.0 100.0
22 49.0 50.0
23 99.0 71.0
24 5.0 8.0
25 8.0 100.0
26 60.0 21.0
27 67.0 88.0
28 8.0 50.0
29 15.0 34.0
30 40.0 21.0
31 14.0 81.0
32 21.0 48.0
33 56.0 49.0
34 39.0 94.0
35 13.0 38.0
36 91.0 30.0
37 48.0 35.0
38 18.0 72.0
39 60.0 4.0
40 39.0 91.0
41 3.0 42.0
42 20.0 81.0
43 20.0 75.0
44 95.0 25.0
45 26.0 83.0
46 9.0 15.0
47 96.0 4.0
48 57.0 76.0
49 27.0 21.0
50 57.0 23.0
51 83.0 85.0
52 11.0 37.0
53 88.0 6.0
54 75.0 55.0
55 29.0 48.0
56 18.0 55.0
57 33.0 72.0
58 54.0 12.0
59 25.0 14.0
60 46.0 14.0
61 41.0 46.0
62 98.0 36.0
63 53.0 58.0
64 95.0 20.0
65 82.0 21.0
66 37.0 40.0
67 47.0 78.0
68 50.0 83.0
69 16.0 58.0
70 74.0 10.0
71 82.0 50.0
72 8.0 82.0
73 86.0 17.0
74 6.0 86.0
75 22.0 24.0
76 43.0 37.0
77 37.0 61.0
78 86.0 98.0
79 80.0 51.0
80 92.0 100.0
81 27.0 86.0
82 93.0 65.0
83 77.0 67.0
84 27.0 6.0
85 64.0 38.0
86 38.0 23.0
87 87.0 64.0
88 45.0 13.0
89 67.0 94.0
90 49.0 70.0
91 7.0 11.0
92 68.0 38.0
93 95.0 97.0
94 88.0 86.0
95 92.0 30.0
96 82.0 6.0
97 21.0 71.0
98 6.0 67.0
99 14.0 56.0
100 60.0 39.0
EOF

